c   test    ripple 3
c a0=1, a1=2, a2=3; b0=4, b1=5, b2=6; c0=7, c1=8, c2=9, i=10, s=11
p   cnf 11   24
1    4   7  -8  0
-1  -4   7   8  0
1   -4  -7   8  0
-1   4  -7   8  0
-1  4   7   -8  0
1   -4  7   -8  0
1   4   -7  -8  0
-1  -4  -7   8  0
2    5   8  -9  0
-2  -5   8   9  0
2   -5  -8   9  0
-2   5  -8   9  0
-2  5   8   -9  0
2   -5  8   -9  0
2   5   -8  -9  0
-2  -5  -8   9  0
-3  6   10   0
3   -6  10   0
-3  -6  -10  0
3   6   -10  0
-9  10   11   0
9   -10  11   0
-9  -10  -11  0
9   10   -11  0